120 150

50
48
53
42
56
45
49
40
58
57
41
52
57
47
46
42
58
54
43
53
40
56
55
44
51
43
49
58
40
40
42
44
47
59
40
40
40
50
45
55
40
41
41
54
41
55
59
48
43
52
58
41
55
56
43
51
41
41
40
44
53
53
58
48
47
43
60
40
40
40
50
49
51
42
50
53
43
55
57
47
46
42
55
53
60
47
43
48
55
47
40
41
41
53
49
48
40
52
58
58
55
41
55
48
49
47
55
59
41
60
50
48
52
59
51
41
52
57
49
49